240
First 240 atoms of test_data/c720.xyz
C 6.68010 -0.85150 -10.17320
C 5.58440 -1.22940 -10.78030
C 4.94100 -0.15280 -11.15480
C 5.64040 0.88790 -10.78180
C 6.71730 0.45720 -10.17640
C 12.08890 -1.36780 0.89000
C 12.15650 -0.96880 -0.35440
C 12.18780 0.34000 -0.35510
C 12.14260 0.74690 0.88780
C 12.08290 -0.30830 1.65890
C 4.31160 -10.92950 -3.28500
C 5.05590 -10.29760 -4.15620
C 6.15160 -9.91950 -3.54810
C 6.08680 -10.32110 -2.30440
C 4.94820 -10.94640 -2.14110
C -5.97710 -5.49080 -9.10870
C -4.83510 -5.52100 -9.74850
C -4.19080 -6.59580 -9.36830
C -4.93600 -7.22810 -8.49820
C -6.04110 -6.54650 -8.33870
C -4.55730 7.43260 -8.53570
C -3.84740 6.75980 -9.40490
C -4.54660 5.71730 -9.77710
C -5.68800 5.74880 -9.13660
C -5.69700 6.81000 -8.37130
C 6.61010 9.98430 -2.35340
C 6.65530 9.57480 -3.59600
C 5.57690 10.00470 -4.20130
C 4.86760 10.68210 -3.33540
C 5.50560 10.66850 -2.19250
C -6.67950 0.85100 10.17110
C -6.71270 -0.45780 10.17410
C -5.63810 -0.88890 10.78380
C -4.94040 0.15480 11.15430
C -5.58460 1.22970 10.77910
C -12.08300 0.30700 -1.65850
C -12.14260 -0.74780 -0.88500
C -12.18840 -0.33800 0.35690
C -12.15550 0.96960 0.35160
C -12.09130 1.36880 -0.89280
C -5.50540 -10.66810 2.19190
C -4.86860 -10.68200 3.33580
C -5.57920 -10.00630 4.20340
C -6.65390 -9.57410 3.59350
C -6.60990 -9.98410 2.35180
C 5.69550 -6.80700 8.37030
C 5.68960 -5.74780 9.13840
C 4.54680 -5.71780 9.77620
C 3.84810 -6.75960 9.40050
C 4.55860 -7.43510 8.53400
C 6.03910 6.54360 8.33880
C 4.93430 7.22770 8.49970
C 4.19160 6.59700 9.37320
C 4.83660 5.52240 9.75100
C 5.97900 5.49020 9.11260
C -4.94850 10.94510 2.14010
C -6.08580 10.31760 2.30530
C -6.15100 9.91920 3.54950
C -5.05550 10.29910 4.15530
C -4.31130 10.93240 3.28400
C 7.01240 -2.91970 -9.36090
C 7.07500 -4.93560 -8.19330
C 6.96360 -6.83640 -6.80510
C 6.68290 -8.54950 -5.24840
C 11.61870 -3.01890 -1.09870
C 10.63740 -5.01200 -1.80280
C 9.37890 -6.88800 -2.47250
C 7.89020 -8.57480 -3.08310
C 11.73470 -1.01890 -2.56010
C 10.87040 -1.01220 -4.72540
C 9.72300 -0.98740 -6.78330
C 8.33710 -0.94530 -8.65580
C 8.63980 -3.08100 -7.60490
C 9.96240 -3.13560 -5.59270
C 10.97870 -3.13110 -3.40960
C 8.64340 -5.10220 -6.29440
C 9.84610 -5.12820 -4.13730
C 8.41260 -6.95650 -4.77480
C 11.13950 -3.75580 -2.13940
C 10.01030 -5.70300 -2.83400
C 8.62810 -7.49920 -3.47550
C 6.99550 -9.04730 -4.00890
C 11.25650 -1.74790 -3.60630
C 10.24180 -1.73590 -5.73230
C 8.96710 -1.69910 -7.71300
C 7.43000 -1.61440 -9.43780
C 7.63780 -3.68070 -8.42050
C 9.13460 -3.79890 -6.52440
C 10.31260 -3.82440 -4.41140
C 7.61540 -5.65150 -7.13020
C 9.02030 -5.75070 -5.09840
C 7.41540 -7.47370 -5.65040
C 11.91670 -1.71170 -1.39110
C 5.82170 -3.32840 -10.01850
C 5.86670 -5.35160 -8.85960
C 5.75540 -7.25170 -7.47190
C 5.49300 -8.95850 -5.90670
C -2.40300 -7.84550 -8.83310
C -0.49410 -8.84330 -7.94320
C 1.44360 -9.61940 -6.84970
C 3.33650 -10.14400 -5.59460
C -2.28590 -5.84480 -10.29600
C -0.26020 -4.84490 -10.86630
C 1.78850 -3.71950 -11.16240
C 3.78220 -2.51450 -11.17000
C 3.87900 -4.72000 -10.23270
C 1.80900 -5.94260 -10.09190
C -0.29870 -7.01340 -9.63110
C 3.83980 -6.75630 -8.94470
C 1.69240 -7.93470 -8.63560
C 3.65240 -8.59590 -7.40050
C -1.04520 -7.95040 -8.86080
C 0.89410 -8.84140 -7.86260
C 2.82160 -9.49920 -6.67830
C 4.64660 -9.85620 -5.30600
C -0.92800 -5.94330 -10.32850
C 1.12610 -4.87470 -10.76230
C 3.16040 -3.69900 -10.91760
C 5.08010 -2.42410 -10.73580
C 5.20800 -4.51730 -9.76140
C 3.18830 -5.84670 -9.80550
C 1.08420 -7.00150 -9.50250
C 5.17040 -6.49330 -8.47940
C 3.07390 -7.79830 -8.37890
C 4.98620 -8.30990 -6.99120
C -2.93000 -6.82210 -9.58040
C 3.08510 -1.34690 -11.57880
C 1.08000 -2.53540 -11.57750
C -0.96880 -3.66080 -11.28210
C -2.98530 -4.67890 -10.70420
C -4.89770 3.59280 -10.41640
C -5.09320 1.28500 -10.67710
C -5.15390 -1.07030 -10.67150
C -5.07780 -3.38350 -10.39940
C -2.74040 4.77750 -10.72790
C -0.78070 3.65210 -11.29870
C 1.20790 2.42170 -11.58780
C 3.14890 1.13130 -11.58360
C 1.08430 -0.05560 -11.86980
C -0.94740 1.23160 -11.74880
C -2.96980 2.45280 -11.27890
C -1.01120 -1.23780 -11.74360
C -3.09520 0.05240 -11.43930
C -3.09370 -2.35050 -11.26770
C -4.33360 2.43830 -10.86850
C -4.45910 0.08940 -10.99740
C -4.45490 -2.26200 -10.85740
C -4.31080 -4.52080 -10.38850
C -2.16930 3.62680 -11.18070
C -0.18240 2.43730 -11.61370
C 1.79880 1.17120 -11.75820
C 3.70260 -0.12240 -11.54240
C 1.73450 -1.31760 -11.75310
C -0.30400 -0.02070 -11.85090
C -2.34560 1.24320 -11.55310
C -0.30900 -2.47990 -11.60310
C -2.40810 -1.17590 -11.54740
C -2.35420 -3.56300 -11.16380
C -4.07240 4.68900 -10.41140
C 3.90590 2.26260 -11.17970
C 1.97640 3.56990 -11.17750
C -0.01210 4.80030 -10.88840
C -1.98330 5.90810 -10.32290
C 3.85400 9.93170 -5.64110
C 1.93610 9.49920 -6.89420
C -0.03930 8.81910 -7.98450
C -1.99710 7.91830 -8.87040
C 5.94650 8.63530 -5.94780
C 6.12160 6.91050 -7.50440
C 6.13490 5.00050 -8.88350
C 5.98480 2.97740 -10.03250
C 4.11590 4.46540 -10.25320
C 4.18260 6.50650 -8.97540
C 4.08920 8.36050 -7.44010
C 2.11110 5.79390 -10.11850
C 2.09740 7.79550 -8.67210
C 0.06120 6.97400 -9.66370
C 3.30630 9.30890 -6.72190
C 1.34710 8.74580 -7.90350
C -0.63580 7.95210 -8.89810
C -2.57670 6.92120 -9.61350
C 5.40670 8.00860 -7.02930
C 5.49780 6.17820 -8.50840
C 5.43300 4.19740 -9.78110
C 5.19820 2.10810 -10.74440
C 3.34570 3.47900 -10.93310
C 3.48350 5.62810 -9.83170
C 3.47010 7.58910 -8.41510
C 1.37390 4.75930 -10.78390
C 1.44130 6.89100 -9.53460
C -0.62230 5.93440 -10.35630
C 5.14810 9.57790 -5.35060
C 8.37390 0.47430 -8.65910
C 9.76040 0.45360 -6.78650
C 10.90780 0.42850 -4.72860
C 11.77150 0.40060 -2.56280
C 8.32210 8.14290 -3.12300
C 9.72110 6.38460 -2.50410
C 10.88130 4.44960 -1.82530
C 11.75830 2.41190 -1.11150
C 7.11410 8.16880 -5.28790
C 7.30650 6.43570 -6.83590
C 7.31990 4.52540 -8.21490
C 7.15330 2.51120 -9.37340
C 8.78680 2.59630 -7.61820
C 8.89450 4.62050 -6.31730
C 8.75960 6.49120 -4.80690
C 10.11060 2.59210 -5.60570
C 10.09730 4.59460 -4.16000
C 11.12600 2.54450 -3.42230
C 9.00280 7.02870 -3.51040
C 10.29070 5.16690 -2.85970
C 11.31800 3.16740 -2.15580
C 11.98820 1.08970 -1.39630
C 7.79020 7.05490 -5.68470
C 7.89620 5.21800 -7.15570
C 7.81720 3.24290 -8.43670
C 7.50290 1.18620 -9.44480
C 9.04210 1.19890 -7.71970
C 9.31820 3.29240 -6.54080
C 9.30490 5.25390 -5.12440
C 10.31730 1.17910 -5.73890
C 10.49610 3.26680 -4.42710
C 11.33160 1.14830 -3.61280
C 7.45190 8.65700 -4.05160
C 11.54680 -3.45130 0.25180
C 10.56450 -5.45150 -0.43220
C 9.30600 -7.32750 -1.10220
C 7.81850 -9.00890 -1.73290
C 6.16620 -8.02790 6.54260
C 6.40340 -8.99080 4.43270
C 6.48580 -9.72710 2.19510
C 6.40920 -10.21020 -0.08290
C 7.49140 -6.05410 7.24740
C 9.05200 -5.04310 5.84260
C 10.39220 -3.90310 4.27560
C 11.46050 -2.67730 2.60550
C 10.69240 -4.86520 1.99100
C 9.47070 -6.10570 3.65560
C 7.95890 -7.19000 5.18680
