26
mol (test_data/vlx/mol.inp), Angstrom
N   -3.2594    0.1452   -0.0484
C   -1.8554    0.2856   -0.4459
C   -0.9478   -0.2401    0.6811
C    0.5243   -0.1763    0.3513
C   -1.5928    1.7557   -0.7726
C    1.1290   -1.2584   -0.2684
C    1.2439    0.9629    0.6746
C   -3.5611   -1.2371    0.2840
C    2.4890   -1.1997   -0.5727
C    2.6039    1.0217    0.3702
C    3.2264   -0.0596   -0.2534
H   -1.6793   -0.2950   -1.3614
H   -1.1574   -1.2882    0.9244
H   -1.1325    0.3172    1.6104
H   -0.6049    1.8970   -1.2217
H   -1.6621    2.3868    0.1204
H   -2.3206    2.1299   -1.5024
H   -3.8534    0.4416   -0.8229
H    0.5629   -2.1496   -0.5239
H    0.7714    1.8091    1.1649
H   -4.6498   -1.3618    0.3020
H   -3.2180   -1.5083    1.2869
H   -3.1721   -1.9462   -0.4546
H    2.9737   -2.0413   -1.0589
H    3.1784    1.9090    0.6198
H    4.2853   -0.0138   -0.4903
